50
73.5 13.35
24.49 93.22
54.98 19.87
77.04 32.0
22.56 26.41
67.06 96.94
29.67 62.03
7.48 89.26
51.38 42.4
51.1 10.11
31.67 49.97
25.68 50.05
3.21 31.31
6.86 28.78
79.15 48.32
61.14 8.44
78.52 42.66
10.42 16.46
16.29 57.37
34.16 27.87
30.29 32.97
46.4 86.34
44.79 43.17
91.75 12.73
38.75 43.87
21.62 43.45
24.99 39.91
16.71 70.45
49.69 43.85
18.88 2.71
70.73 85.25
14.75 61.25
90.24 76.76
42.94 68.33
13.43 11.89
53.68 89.94
69.85 76.08
22.55 57.67
14.82 2.01
69.41 20.09
80.65 21.89
47.3 39.34
63.67 3.0
8.66 37.48
54.91 22.7
37.14 82.57
10.79 5.66
32.44 2.65
56.9 40.0
54.33 79.86
